p cnf 10 50
-10 -4 -8 0
-10 -9 -4 0
8 -4 -10 0
-1 -8 3 0
3 1 -9 0
-8 6 -4 0
-9 -4 3 0
4 5 2 0
-8 -5 -10 0
8 -5 -9 0
-7 8 -5 0
-6 -4 7 0
8 9 6 0
6 3 10 0
3 -2 8 0
-1 -6 8 0
2 6 -3 0
-5 -6 -2 0
-4 2 -1 0
3 -10 1 0
-2 -3 6 0
-7 5 4 0
8 6 -7 0
-2 10 6 0
-10 -4 8 0
3 10 5 0
-5 10 -1 0
-2 -4 -7 0
5 -7 -8 0
-8 10 -2 0
9 -1 -5 0
-10 -2 3 0
10 4 -5 0
-4 -1 8 0
7 1 -2 0
1 -10 5 0
7 -5 -1 0
-8 5 -3 0
6 -3 -5 0
-1 5 9 0
10 2 -3 0
1 8 7 0
7 10 8 0
-2 4 -9 0
-5 -4 10 0
4 -10 1 0
10 5 -9 0
8 -10 -6 0
-7 -2 3 0
1 7 -8 0